\ Model 2D Bin Packing Optimization
\ LP format - for model browsing. Use MPS format to capture full model detail.
Minimize
  140 z[0] + 0 l[0,0] + 0 l[1,1] + 0 l[2,2] + 0 l[3,3] + 0 l[4,4] + 0 l[5,5]
   + 0 u[0,0] + 0 u[1,1] + 0 u[2,2] + 0 u[3,3] + 0 u[4,4] + 0 u[5,5]
   + 0 h[0,0] + 0 h[0,1] + 0 h[0,2] + 0 h[0,3] + 0 h[0,4] + 0 h[0,5]
   + 0 h[1,0] + 0 h[1,1] + 0 h[1,2] + 0 h[1,3] + 0 h[1,4] + 0 h[1,5]
   + 0 h[2,0] + 0 h[2,1] + 0 h[2,2] + 0 h[2,3] + 0 h[2,4] + 0 h[2,5]
   + 0 h[3,0] + 0 h[3,1] + 0 h[3,2] + 0 h[3,3] + 0 h[3,4] + 0 h[3,5]
   + 0 h[4,0] + 0 h[4,1] + 0 h[4,2] + 0 h[4,3] + 0 h[4,4] + 0 h[4,5]
   + 0 h[5,0] + 0 h[5,1] + 0 h[5,2] + 0 h[5,3] + 0 h[5,4] + 0 h[5,5]
   + 0 o[0,0] + 0 o[0,1] + 0 o[0,2] + 0 o[0,3] + 0 o[0,4] + 0 o[0,5]
   + 0 o[1,0] + 0 o[1,1] + 0 o[1,2] + 0 o[1,3] + 0 o[1,4] + 0 o[1,5]
   + 0 o[2,0] + 0 o[2,1] + 0 o[2,2] + 0 o[2,3] + 0 o[2,4] + 0 o[2,5]
   + 0 o[3,0] + 0 o[3,1] + 0 o[3,2] + 0 o[3,3] + 0 o[3,4] + 0 o[3,5]
   + 0 o[4,0] + 0 o[4,1] + 0 o[4,2] + 0 o[4,3] + 0 o[4,4] + 0 o[4,5]
   + 0 o[5,0] + 0 o[5,1] + 0 o[5,2] + 0 o[5,3] + 0 o[5,4] + 0 o[5,5]
   + 0 s[0,0] + 0 s[0,1] + 0 s[0,2] + 0 s[0,3] + 0 s[0,4] + 0 s[0,5]
   + 0 s[1,0] + 0 s[1,1] + 0 s[1,2] + 0 s[1,3] + 0 s[1,4] + 0 s[1,5]
   + 0 s[2,0] + 0 s[2,1] + 0 s[2,2] + 0 s[2,3] + 0 s[2,4] + 0 s[2,5]
   + 0 s[3,0] + 0 s[3,1] + 0 s[3,2] + 0 s[3,3] + 0 s[3,4] + 0 s[3,5]
   + 0 s[4,0] + 0 s[4,1] + 0 s[4,2] + 0 s[4,3] + 0 s[4,4] + 0 s[4,5]
   + 0 s[5,0] + 0 s[5,1] + 0 s[5,2] + 0 s[5,3] + 0 s[5,4] + 0 s[5,5]
   + 0 n1[0,0] + 0 n1[1,1] + 0 n1[2,2] + 0 n1[3,3] + 0 n1[4,4] + 0 n1[5,5]
   + 0 n2[0,0] + 0 n2[0,1] + 0 n2[0,2] + 0 n2[0,3] + 0 n2[0,4] + 0 n2[0,5]
   + 0 n2[1,0] + 0 n2[1,1] + 0 n2[1,2] + 0 n2[1,3] + 0 n2[1,4] + 0 n2[1,5]
   + 0 n2[2,0] + 0 n2[2,1] + 0 n2[2,2] + 0 n2[2,3] + 0 n2[2,4] + 0 n2[2,5]
   + 0 n2[3,0] + 0 n2[3,1] + 0 n2[3,2] + 0 n2[3,3] + 0 n2[3,4] + 0 n2[3,5]
   + 0 n2[4,0] + 0 n2[4,1] + 0 n2[4,2] + 0 n2[4,3] + 0 n2[4,4] + 0 n2[4,5]
   + 0 n2[5,0] + 0 n2[5,1] + 0 n2[5,2] + 0 n2[5,3] + 0 n2[5,4] + 0 n2[5,5]
   + 0 b1[0,0] + 0 b1[1,1] + 0 b1[2,2] + 0 b1[3,3] + 0 b1[4,4] + 0 b1[5,5]
   + 0 b2[0,0] + 0 b2[1,1] + 0 b2[2,2] + 0 b2[3,3] + 0 b2[4,4] + 0 b2[5,5]
Subject To
 R0: - 30 r[0] - x[0] + x2[0] = 29
 R1: - 41 r[1] - x[1] + x2[1] = 50
 R2: - 82 r[2] - x[2] + x2[2] = 35
 R3: - 47 r[3] - x[3] + x2[3] = 23
 R4: - 59 r[4] - x[4] + x2[4] = 37
 R5: - 30 r[5] - x[5] + x2[5] = 56
 R6: 30 r[0] - y[0] + y2[0] = 59
 R7: 41 r[1] - y[1] + y2[1] = 91
 R8: 82 r[2] - y[2] + y2[2] = 117
 R9: 47 r[3] - y[3] + y2[3] = 70
 R10: 59 r[4] - y[4] + y2[4] = 96
 R11: 30 r[5] - y[5] + y2[5] = 86
 con2[0,_1,_0]-: - p[0,0] - p[1,0] + l[0,1] + l[1,0] + u[0,1] + u[1,0]
   >= -1
 con2[0,_2,_0]-: - p[0,0] - p[2,0] + l[0,2] + l[2,0] + u[0,2] + u[2,0]
   >= -1
 con2[0,_3,_0]-: - p[0,0] - p[3,0] + l[0,3] + l[3,0] + u[0,3] + u[3,0]
   >= -1
 con2[0,_4,_0]-: - p[0,0] - p[4,0] + l[0,4] + l[4,0] + u[0,4] + u[4,0]
   >= -1
 con2[0,_5,_0]-: - p[0,0] - p[5,0] + l[0,5] + l[5,0] + u[0,5] + u[5,0]
   >= -1
 con2[1,_0,_0]-: - p[0,0] - p[1,0] + l[0,1] + l[1,0] + u[0,1] + u[1,0]
   >= -1
 con2[1,_2,_0]-: - p[1,0] - p[2,0] + l[1,2] + l[2,1] + u[1,2] + u[2,1]
   >= -1
 con2[1,_3,_0]-: - p[1,0] - p[3,0] + l[1,3] + l[3,1] + u[1,3] + u[3,1]
   >= -1
 con2[1,_4,_0]-: - p[1,0] - p[4,0] + l[1,4] + l[4,1] + u[1,4] + u[4,1]
   >= -1
 con2[1,_5,_0]-: - p[1,0] - p[5,0] + l[1,5] + l[5,1] + u[1,5] + u[5,1]
   >= -1
 con2[2,_0,_0]-: - p[0,0] - p[2,0] + l[0,2] + l[2,0] + u[0,2] + u[2,0]
   >= -1
 con2[2,_1,_0]-: - p[1,0] - p[2,0] + l[1,2] + l[2,1] + u[1,2] + u[2,1]
   >= -1
 con2[2,_3,_0]-: - p[2,0] - p[3,0] + l[2,3] + l[3,2] + u[2,3] + u[3,2]
   >= -1
 con2[2,_4,_0]-: - p[2,0] - p[4,0] + l[2,4] + l[4,2] + u[2,4] + u[4,2]
   >= -1
 con2[2,_5,_0]-: - p[2,0] - p[5,0] + l[2,5] + l[5,2] + u[2,5] + u[5,2]
   >= -1
 con2[3,_0,_0]-: - p[0,0] - p[3,0] + l[0,3] + l[3,0] + u[0,3] + u[3,0]
   >= -1
 con2[3,_1,_0]-: - p[1,0] - p[3,0] + l[1,3] + l[3,1] + u[1,3] + u[3,1]
   >= -1
 con2[3,_2,_0]-: - p[2,0] - p[3,0] + l[2,3] + l[3,2] + u[2,3] + u[3,2]
   >= -1
 con2[3,_4,_0]-: - p[3,0] - p[4,0] + l[3,4] + l[4,3] + u[3,4] + u[4,3]
   >= -1
 con2[3,_5,_0]-: - p[3,0] - p[5,0] + l[3,5] + l[5,3] + u[3,5] + u[5,3]
   >= -1
 con2[4,_0,_0]-: - p[0,0] - p[4,0] + l[0,4] + l[4,0] + u[0,4] + u[4,0]
   >= -1
 con2[4,_1,_0]-: - p[1,0] - p[4,0] + l[1,4] + l[4,1] + u[1,4] + u[4,1]
   >= -1
 con2[4,_2,_0]-: - p[2,0] - p[4,0] + l[2,4] + l[4,2] + u[2,4] + u[4,2]
   >= -1
 con2[4,_3,_0]-: - p[3,0] - p[4,0] + l[3,4] + l[4,3] + u[3,4] + u[4,3]
   >= -1
 con2[4,_5,_0]-: - p[4,0] - p[5,0] + l[4,5] + l[5,4] + u[4,5] + u[5,4]
   >= -1
 con2[5,_0,_0]-: - p[0,0] - p[5,0] + l[0,5] + l[5,0] + u[0,5] + u[5,0]
   >= -1
 con2[5,_1,_0]-: - p[1,0] - p[5,0] + l[1,5] + l[5,1] + u[1,5] + u[5,1]
   >= -1
 con2[5,_2,_0]-: - p[2,0] - p[5,0] + l[2,5] + l[5,2] + u[2,5] + u[5,2]
   >= -1
 con2[5,_3,_0]-: - p[3,0] - p[5,0] + l[3,5] + l[5,3] + u[3,5] + u[5,3]
   >= -1
 con2[5,_4,_0]-: - p[4,0] - p[5,0] + l[4,5] + l[5,4] + u[4,5] + u[5,4]
   >= -1
 con3[0,_1,_0]-: - 100000 l[0,1] - 30 r[0] - x[0] + x[1] >= -99971
 con3[0,_2,_0]-: - 100000 l[0,2] - 30 r[0] - x[0] + x[2] >= -99971
 con3[0,_3,_0]-: - 100000 l[0,3] - 30 r[0] - x[0] + x[3] >= -99971
 con3[0,_4,_0]-: - 100000 l[0,4] - 30 r[0] - x[0] + x[4] >= -99971
 con3[0,_5,_0]-: - 100000 l[0,5] - 30 r[0] - x[0] + x[5] >= -99971
 con3[1,_0,_0]-: - 100000 l[1,0] - 41 r[1] + x[0] - x[1] >= -99950
 con3[1,_2,_0]-: - 100000 l[1,2] - 41 r[1] - x[1] + x[2] >= -99950
 con3[1,_3,_0]-: - 100000 l[1,3] - 41 r[1] - x[1] + x[3] >= -99950
 con3[1,_4,_0]-: - 100000 l[1,4] - 41 r[1] - x[1] + x[4] >= -99950
 con3[1,_5,_0]-: - 100000 l[1,5] - 41 r[1] - x[1] + x[5] >= -99950
 con3[2,_0,_0]-: - 100000 l[2,0] - 82 r[2] + x[0] - x[2] >= -99965
 con3[2,_1,_0]-: - 100000 l[2,1] - 82 r[2] + x[1] - x[2] >= -99965
 con3[2,_3,_0]-: - 100000 l[2,3] - 82 r[2] - x[2] + x[3] >= -99965
 con3[2,_4,_0]-: - 100000 l[2,4] - 82 r[2] - x[2] + x[4] >= -99965
 con3[2,_5,_0]-: - 100000 l[2,5] - 82 r[2] - x[2] + x[5] >= -99965
 con3[3,_0,_0]-: - 100000 l[3,0] - 47 r[3] + x[0] - x[3] >= -99977
 con3[3,_1,_0]-: - 100000 l[3,1] - 47 r[3] + x[1] - x[3] >= -99977
 con3[3,_2,_0]-: - 100000 l[3,2] - 47 r[3] + x[2] - x[3] >= -99977
 con3[3,_4,_0]-: - 100000 l[3,4] - 47 r[3] - x[3] + x[4] >= -99977
 con3[3,_5,_0]-: - 100000 l[3,5] - 47 r[3] - x[3] + x[5] >= -99977
 con3[4,_0,_0]-: - 100000 l[4,0] - 59 r[4] + x[0] - x[4] >= -99963
 con3[4,_1,_0]-: - 100000 l[4,1] - 59 r[4] + x[1] - x[4] >= -99963
 con3[4,_2,_0]-: - 100000 l[4,2] - 59 r[4] + x[2] - x[4] >= -99963
 con3[4,_3,_0]-: - 100000 l[4,3] - 59 r[4] + x[3] - x[4] >= -99963
 con3[4,_5,_0]-: - 100000 l[4,5] - 59 r[4] - x[4] + x[5] >= -99963
 con3[5,_0,_0]-: - 100000 l[5,0] - 30 r[5] + x[0] - x[5] >= -99944
 con3[5,_1,_0]-: - 100000 l[5,1] - 30 r[5] + x[1] - x[5] >= -99944
 con3[5,_2,_0]-: - 100000 l[5,2] - 30 r[5] + x[2] - x[5] >= -99944
 con3[5,_3,_0]-: - 100000 l[5,3] - 30 r[5] + x[3] - x[5] >= -99944
 con3[5,_4,_0]-: - 100000 l[5,4] - 30 r[5] + x[4] - x[5] >= -99944
 con4[0,_1,_0]-: - 100000 l[0,1] - 30 r[0] - x[0] + x[1] <= 29
 con4[0,_2,_0]-: - 100000 l[0,2] - 30 r[0] - x[0] + x[2] <= 29
 con4[0,_3,_0]-: - 100000 l[0,3] - 30 r[0] - x[0] + x[3] <= 29
 con4[0,_4,_0]-: - 100000 l[0,4] - 30 r[0] - x[0] + x[4] <= 29
 con4[0,_5,_0]-: - 100000 l[0,5] - 30 r[0] - x[0] + x[5] <= 29
 con4[1,_0,_0]-: - 100000 l[1,0] - 41 r[1] + x[0] - x[1] <= 50
 con4[1,_2,_0]-: - 100000 l[1,2] - 41 r[1] - x[1] + x[2] <= 50
 con4[1,_3,_0]-: - 100000 l[1,3] - 41 r[1] - x[1] + x[3] <= 50
 con4[1,_4,_0]-: - 100000 l[1,4] - 41 r[1] - x[1] + x[4] <= 50
 con4[1,_5,_0]-: - 100000 l[1,5] - 41 r[1] - x[1] + x[5] <= 50
 con4[2,_0,_0]-: - 100000 l[2,0] - 82 r[2] + x[0] - x[2] <= 35
 con4[2,_1,_0]-: - 100000 l[2,1] - 82 r[2] + x[1] - x[2] <= 35
 con4[2,_3,_0]-: - 100000 l[2,3] - 82 r[2] - x[2] + x[3] <= 35
 con4[2,_4,_0]-: - 100000 l[2,4] - 82 r[2] - x[2] + x[4] <= 35
 con4[2,_5,_0]-: - 100000 l[2,5] - 82 r[2] - x[2] + x[5] <= 35
 con4[3,_0,_0]-: - 100000 l[3,0] - 47 r[3] + x[0] - x[3] <= 23
 con4[3,_1,_0]-: - 100000 l[3,1] - 47 r[3] + x[1] - x[3] <= 23
 con4[3,_2,_0]-: - 100000 l[3,2] - 47 r[3] + x[2] - x[3] <= 23
 con4[3,_4,_0]-: - 100000 l[3,4] - 47 r[3] - x[3] + x[4] <= 23
 con4[3,_5,_0]-: - 100000 l[3,5] - 47 r[3] - x[3] + x[5] <= 23
 con4[4,_0,_0]-: - 100000 l[4,0] - 59 r[4] + x[0] - x[4] <= 37
 con4[4,_1,_0]-: - 100000 l[4,1] - 59 r[4] + x[1] - x[4] <= 37
 con4[4,_2,_0]-: - 100000 l[4,2] - 59 r[4] + x[2] - x[4] <= 37
 con4[4,_3,_0]-: - 100000 l[4,3] - 59 r[4] + x[3] - x[4] <= 37
 con4[4,_5,_0]-: - 100000 l[4,5] - 59 r[4] - x[4] + x[5] <= 37
 con4[5,_0,_0]-: - 100000 l[5,0] - 30 r[5] + x[0] - x[5] <= 56
 con4[5,_1,_0]-: - 100000 l[5,1] - 30 r[5] + x[1] - x[5] <= 56
 con4[5,_2,_0]-: - 100000 l[5,2] - 30 r[5] + x[2] - x[5] <= 56
 con4[5,_3,_0]-: - 100000 l[5,3] - 30 r[5] + x[3] - x[5] <= 56
 con4[5,_4,_0]-: - 100000 l[5,4] - 30 r[5] + x[4] - x[5] <= 56
 con5[0,_1,_0]-: - 100000 u[0,1] + 30 r[0] - y[0] + y[1] >= -99941
 con5[0,_2,_0]-: - 100000 u[0,2] + 30 r[0] - y[0] + y[2] >= -99941
 con5[0,_3,_0]-: - 100000 u[0,3] + 30 r[0] - y[0] + y[3] >= -99941
 con5[0,_4,_0]-: - 100000 u[0,4] + 30 r[0] - y[0] + y[4] >= -99941
 con5[0,_5,_0]-: - 100000 u[0,5] + 30 r[0] - y[0] + y[5] >= -99941
 con5[1,_0,_0]-: - 100000 u[1,0] + 41 r[1] + y[0] - y[1] >= -99909
 con5[1,_2,_0]-: - 100000 u[1,2] + 41 r[1] - y[1] + y[2] >= -99909
 con5[1,_3,_0]-: - 100000 u[1,3] + 41 r[1] - y[1] + y[3] >= -99909
 con5[1,_4,_0]-: - 100000 u[1,4] + 41 r[1] - y[1] + y[4] >= -99909
 con5[1,_5,_0]-: - 100000 u[1,5] + 41 r[1] - y[1] + y[5] >= -99909
 con5[2,_0,_0]-: - 100000 u[2,0] + 82 r[2] + y[0] - y[2] >= -99883
 con5[2,_1,_0]-: - 100000 u[2,1] + 82 r[2] + y[1] - y[2] >= -99883
 con5[2,_3,_0]-: - 100000 u[2,3] + 82 r[2] - y[2] + y[3] >= -99883
 con5[2,_4,_0]-: - 100000 u[2,4] + 82 r[2] - y[2] + y[4] >= -99883
 con5[2,_5,_0]-: - 100000 u[2,5] + 82 r[2] - y[2] + y[5] >= -99883
 con5[3,_0,_0]-: - 100000 u[3,0] + 47 r[3] + y[0] - y[3] >= -99930
 con5[3,_1,_0]-: - 100000 u[3,1] + 47 r[3] + y[1] - y[3] >= -99930
 con5[3,_2,_0]-: - 100000 u[3,2] + 47 r[3] + y[2] - y[3] >= -99930
 con5[3,_4,_0]-: - 100000 u[3,4] + 47 r[3] - y[3] + y[4] >= -99930
 con5[3,_5,_0]-: - 100000 u[3,5] + 47 r[3] - y[3] + y[5] >= -99930
 con5[4,_0,_0]-: - 100000 u[4,0] + 59 r[4] + y[0] - y[4] >= -99904
 con5[4,_1,_0]-: - 100000 u[4,1] + 59 r[4] + y[1] - y[4] >= -99904
 con5[4,_2,_0]-: - 100000 u[4,2] + 59 r[4] + y[2] - y[4] >= -99904
 con5[4,_3,_0]-: - 100000 u[4,3] + 59 r[4] + y[3] - y[4] >= -99904
 con5[4,_5,_0]-: - 100000 u[4,5] + 59 r[4] - y[4] + y[5] >= -99904
 con5[5,_0,_0]-: - 100000 u[5,0] + 30 r[5] + y[0] - y[5] >= -99914
 con5[5,_1,_0]-: - 100000 u[5,1] + 30 r[5] + y[1] - y[5] >= -99914
 con5[5,_2,_0]-: - 100000 u[5,2] + 30 r[5] + y[2] - y[5] >= -99914
 con5[5,_3,_0]-: - 100000 u[5,3] + 30 r[5] + y[3] - y[5] >= -99914
 con5[5,_4,_0]-: - 100000 u[5,4] + 30 r[5] + y[4] - y[5] >= -99914
 con6[0,_1,_0]-: - 100000 u[0,1] + 30 r[0] - y[0] + y[1] <= 59
 con6[0,_2,_0]-: - 100000 u[0,2] + 30 r[0] - y[0] + y[2] <= 59
 con6[0,_3,_0]-: - 100000 u[0,3] + 30 r[0] - y[0] + y[3] <= 59
 con6[0,_4,_0]-: - 100000 u[0,4] + 30 r[0] - y[0] + y[4] <= 59
 con6[0,_5,_0]-: - 100000 u[0,5] + 30 r[0] - y[0] + y[5] <= 59
 con6[1,_0,_0]-: - 100000 u[1,0] + 41 r[1] + y[0] - y[1] <= 91
 con6[1,_2,_0]-: - 100000 u[1,2] + 41 r[1] - y[1] + y[2] <= 91
 con6[1,_3,_0]-: - 100000 u[1,3] + 41 r[1] - y[1] + y[3] <= 91
 con6[1,_4,_0]-: - 100000 u[1,4] + 41 r[1] - y[1] + y[4] <= 91
 con6[1,_5,_0]-: - 100000 u[1,5] + 41 r[1] - y[1] + y[5] <= 91
 con6[2,_0,_0]-: - 100000 u[2,0] + 82 r[2] + y[0] - y[2] <= 117
 con6[2,_1,_0]-: - 100000 u[2,1] + 82 r[2] + y[1] - y[2] <= 117
 con6[2,_3,_0]-: - 100000 u[2,3] + 82 r[2] - y[2] + y[3] <= 117
 con6[2,_4,_0]-: - 100000 u[2,4] + 82 r[2] - y[2] + y[4] <= 117
 con6[2,_5,_0]-: - 100000 u[2,5] + 82 r[2] - y[2] + y[5] <= 117
 con6[3,_0,_0]-: - 100000 u[3,0] + 47 r[3] + y[0] - y[3] <= 70
 con6[3,_1,_0]-: - 100000 u[3,1] + 47 r[3] + y[1] - y[3] <= 70
 con6[3,_2,_0]-: - 100000 u[3,2] + 47 r[3] + y[2] - y[3] <= 70
 con6[3,_4,_0]-: - 100000 u[3,4] + 47 r[3] - y[3] + y[4] <= 70
 con6[3,_5,_0]-: - 100000 u[3,5] + 47 r[3] - y[3] + y[5] <= 70
 con6[4,_0,_0]-: - 100000 u[4,0] + 59 r[4] + y[0] - y[4] <= 96
 con6[4,_1,_0]-: - 100000 u[4,1] + 59 r[4] + y[1] - y[4] <= 96
 con6[4,_2,_0]-: - 100000 u[4,2] + 59 r[4] + y[2] - y[4] <= 96
 con6[4,_3,_0]-: - 100000 u[4,3] + 59 r[4] + y[3] - y[4] <= 96
 con6[4,_5,_0]-: - 100000 u[4,5] + 59 r[4] - y[4] + y[5] <= 96
 con6[5,_0,_0]-: - 100000 u[5,0] + 30 r[5] + y[0] - y[5] <= 86
 con6[5,_1,_0]-: - 100000 u[5,1] + 30 r[5] + y[1] - y[5] <= 86
 con6[5,_2,_0]-: - 100000 u[5,2] + 30 r[5] + y[2] - y[5] <= 86
 con6[5,_3,_0]-: - 100000 u[5,3] + 30 r[5] + y[3] - y[5] <= 86
 con6[5,_4,_0]-: - 100000 u[5,4] + 30 r[5] + y[4] - y[5] <= 86
 con7[0,_0]-: - 300 p[0,0] + 30 r[0] + x[0] <= -29
 con7[1,_0]-: - 300 p[1,0] + 41 r[1] + x[1] <= -50
 con7[2,_0]-: - 300 p[2,0] + 82 r[2] + x[2] <= -35
 con7[3,_0]-: - 300 p[3,0] + 47 r[3] + x[3] <= -23
 con7[4,_0]-: - 300 p[4,0] + 59 r[4] + x[4] <= -37
 con7[5,_0]-: - 300 p[5,0] + 30 r[5] + x[5] <= -56
 con8[0,_0]-: - 155 p[0,0] - 30 r[0] + y[0] <= -59
 con8[1,_0]-: - 155 p[1,0] - 41 r[1] + y[1] <= -91
 con8[2,_0]-: - 155 p[2,0] - 82 r[2] + y[2] <= -117
 con8[3,_0]-: - 155 p[3,0] - 47 r[3] + y[3] <= -70
 con8[4,_0]-: - 155 p[4,0] - 59 r[4] + y[4] <= -96
 con8[5,_0]-: - 155 p[5,0] - 30 r[5] + y[5] <= -86
 con11[0]-: p[0,0] = 1
 con11[1]-: p[1,0] = 1
 con11[2]-: p[2,0] = 1
 con11[3]-: p[3,0] = 1
 con11[4]-: p[4,0] = 1
 con11[5]-: p[5,0] = 1
 con12[0,_0]-: - p[0,0] + z[0] >= 0
 con12[1,_0]-: - p[1,0] + z[0] >= 0
 con12[2,_0]-: - p[2,0] + z[0] >= 0
 con12[3,_0]-: - p[3,0] + z[0] >= 0
 con12[4,_0]-: - p[4,0] + z[0] >= 0
 con12[5,_0]-: - p[5,0] + z[0] >= 0
 con14[0]-: 10 g[0] + b1[0,1] + b1[0,2] + b1[0,3] + b1[0,4] + b1[0,5]
   + b2[0,1] + b2[0,2] + b2[0,3] + b2[0,4] + b2[0,5] = 2
 con14[1]-: 10 g[1] + b1[1,0] + b1[1,2] + b1[1,3] + b1[1,4] + b1[1,5]
   + b2[1,0] + b2[1,2] + b2[1,3] + b2[1,4] + b2[1,5] = 2
 con14[2]-: 10 g[2] + b1[2,0] + b1[2,1] + b1[2,3] + b1[2,4] + b1[2,5]
   + b2[2,0] + b2[2,1] + b2[2,3] + b2[2,4] + b2[2,5] = 2
 con14[3]-: 10 g[3] + b1[3,0] + b1[3,1] + b1[3,2] + b1[3,4] + b1[3,5]
   + b2[3,0] + b2[3,1] + b2[3,2] + b2[3,4] + b2[3,5] = 2
 con14[4]-: 10 g[4] + b1[4,0] + b1[4,1] + b1[4,2] + b1[4,3] + b1[4,5]
   + b2[4,0] + b2[4,1] + b2[4,2] + b2[4,3] + b2[4,5] = 2
 con14[5]-: 10 g[5] + b1[5,0] + b1[5,1] + b1[5,2] + b1[5,3] + b1[5,4]
   + b2[5,0] + b2[5,1] + b2[5,2] + b2[5,3] + b2[5,4] = 2
 con15[0]-: y[0] + 100000 g[0] <= 100000
 con15[1]-: y[1] + 100000 g[1] <= 100000
 con15[2]-: y[2] + 100000 g[2] <= 100000
 con15[3]-: y[3] + 100000 g[3] <= 100000
 con15[4]-: y[4] + 100000 g[4] <= 100000
 con15[5]-: y[5] + 100000 g[5] <= 100000
 R198: - x[0] + x[1] - 100000 n1[0,1] >= -100000
 R199: - x[0] + x[2] - 100000 n1[0,2] >= -100000
 R200: - x[0] + x[3] - 100000 n1[0,3] >= -100000
 R201: - x[0] + x[4] - 100000 n1[0,4] >= -100000
 R202: - x[0] + x[5] - 100000 n1[0,5] >= -100000
 R203: x[0] - x[1] - 100000 n1[1,0] >= -100000
 R204: - x[1] + x[2] - 100000 n1[1,2] >= -100000
 R205: - x[1] + x[3] - 100000 n1[1,3] >= -100000
 R206: - x[1] + x[4] - 100000 n1[1,4] >= -100000
 R207: - x[1] + x[5] - 100000 n1[1,5] >= -100000
 R208: x[0] - x[2] - 100000 n1[2,0] >= -100000
 R209: x[1] - x[2] - 100000 n1[2,1] >= -100000
 R210: - x[2] + x[3] - 100000 n1[2,3] >= -100000
 R211: - x[2] + x[4] - 100000 n1[2,4] >= -100000
 R212: - x[2] + x[5] - 100000 n1[2,5] >= -100000
 R213: x[0] - x[3] - 100000 n1[3,0] >= -100000
 R214: x[1] - x[3] - 100000 n1[3,1] >= -100000
 R215: x[2] - x[3] - 100000 n1[3,2] >= -100000
 R216: - x[3] + x[4] - 100000 n1[3,4] >= -100000
 R217: - x[3] + x[5] - 100000 n1[3,5] >= -100000
 R218: x[0] - x[4] - 100000 n1[4,0] >= -100000
 R219: x[1] - x[4] - 100000 n1[4,1] >= -100000
 R220: x[2] - x[4] - 100000 n1[4,2] >= -100000
 R221: x[3] - x[4] - 100000 n1[4,3] >= -100000
 R222: - x[4] + x[5] - 100000 n1[4,5] >= -100000
 R223: x[0] - x[5] - 100000 n1[5,0] >= -100000
 R224: x[1] - x[5] - 100000 n1[5,1] >= -100000
 R225: x[2] - x[5] - 100000 n1[5,2] >= -100000
 R226: x[3] - x[5] - 100000 n1[5,3] >= -100000
 R227: x[4] - x[5] - 100000 n1[5,4] >= -100000
 R228: - x[0] + x[1] + 100000 n1[0,1] <= 100000
 R229: - x[0] + x[2] + 100000 n1[0,2] <= 100000
 R230: - x[0] + x[3] + 100000 n1[0,3] <= 100000
 R231: - x[0] + x[4] + 100000 n1[0,4] <= 100000
 R232: - x[0] + x[5] + 100000 n1[0,5] <= 100000
 R233: x[0] - x[1] + 100000 n1[1,0] <= 100000
 R234: - x[1] + x[2] + 100000 n1[1,2] <= 100000
 R235: - x[1] + x[3] + 100000 n1[1,3] <= 100000
 R236: - x[1] + x[4] + 100000 n1[1,4] <= 100000
 R237: - x[1] + x[5] + 100000 n1[1,5] <= 100000
 R238: x[0] - x[2] + 100000 n1[2,0] <= 100000
 R239: x[1] - x[2] + 100000 n1[2,1] <= 100000
 R240: - x[2] + x[3] + 100000 n1[2,3] <= 100000
 R241: - x[2] + x[4] + 100000 n1[2,4] <= 100000
 R242: - x[2] + x[5] + 100000 n1[2,5] <= 100000
 R243: x[0] - x[3] + 100000 n1[3,0] <= 100000
 R244: x[1] - x[3] + 100000 n1[3,1] <= 100000
 R245: x[2] - x[3] + 100000 n1[3,2] <= 100000
 R246: - x[3] + x[4] + 100000 n1[3,4] <= 100000
 R247: - x[3] + x[5] + 100000 n1[3,5] <= 100000
 R248: x[0] - x[4] + 100000 n1[4,0] <= 100000
 R249: x[1] - x[4] + 100000 n1[4,1] <= 100000
 R250: x[2] - x[4] + 100000 n1[4,2] <= 100000
 R251: x[3] - x[4] + 100000 n1[4,3] <= 100000
 R252: - x[4] + x[5] + 100000 n1[4,5] <= 100000
 R253: x[0] - x[5] + 100000 n1[5,0] <= 100000
 R254: x[1] - x[5] + 100000 n1[5,1] <= 100000
 R255: x[2] - x[5] + 100000 n1[5,2] <= 100000
 R256: x[3] - x[5] + 100000 n1[5,3] <= 100000
 R257: x[4] - x[5] + 100000 n1[5,4] <= 100000
 R258: - x2[0] + x2[1] - 100000 n1[0,1] >= -100000
 R259: - x2[0] + x2[2] - 100000 n1[0,2] >= -100000
 R260: - x2[0] + x2[3] - 100000 n1[0,3] >= -100000
 R261: - x2[0] + x2[4] - 100000 n1[0,4] >= -100000
 R262: - x2[0] + x2[5] - 100000 n1[0,5] >= -100000
 R263: x2[0] - x2[1] - 100000 n1[1,0] >= -100000
 R264: - x2[1] + x2[2] - 100000 n1[1,2] >= -100000
 R265: - x2[1] + x2[3] - 100000 n1[1,3] >= -100000
 R266: - x2[1] + x2[4] - 100000 n1[1,4] >= -100000
 R267: - x2[1] + x2[5] - 100000 n1[1,5] >= -100000
 R268: x2[0] - x2[2] - 100000 n1[2,0] >= -100000
 R269: x2[1] - x2[2] - 100000 n1[2,1] >= -100000
 R270: - x2[2] + x2[3] - 100000 n1[2,3] >= -100000
 R271: - x2[2] + x2[4] - 100000 n1[2,4] >= -100000
 R272: - x2[2] + x2[5] - 100000 n1[2,5] >= -100000
 R273: x2[0] - x2[3] - 100000 n1[3,0] >= -100000
 R274: x2[1] - x2[3] - 100000 n1[3,1] >= -100000
 R275: x2[2] - x2[3] - 100000 n1[3,2] >= -100000
 R276: - x2[3] + x2[4] - 100000 n1[3,4] >= -100000
 R277: - x2[3] + x2[5] - 100000 n1[3,5] >= -100000
 R278: x2[0] - x2[4] - 100000 n1[4,0] >= -100000
 R279: x2[1] - x2[4] - 100000 n1[4,1] >= -100000
 R280: x2[2] - x2[4] - 100000 n1[4,2] >= -100000
 R281: x2[3] - x2[4] - 100000 n1[4,3] >= -100000
 R282: - x2[4] + x2[5] - 100000 n1[4,5] >= -100000
 R283: x2[0] - x2[5] - 100000 n1[5,0] >= -100000
 R284: x2[1] - x2[5] - 100000 n1[5,1] >= -100000
 R285: x2[2] - x2[5] - 100000 n1[5,2] >= -100000
 R286: x2[3] - x2[5] - 100000 n1[5,3] >= -100000
 R287: x2[4] - x2[5] - 100000 n1[5,4] >= -100000
 R288: - x2[0] + x2[1] + 100000 n1[0,1] <= 100000
 R289: - x2[0] + x2[2] + 100000 n1[0,2] <= 100000
 R290: - x2[0] + x2[3] + 100000 n1[0,3] <= 100000
 R291: - x2[0] + x2[4] + 100000 n1[0,4] <= 100000
 R292: - x2[0] + x2[5] + 100000 n1[0,5] <= 100000
 R293: x2[0] - x2[1] + 100000 n1[1,0] <= 100000
 R294: - x2[1] + x2[2] + 100000 n1[1,2] <= 100000
 R295: - x2[1] + x2[3] + 100000 n1[1,3] <= 100000
 R296: - x2[1] + x2[4] + 100000 n1[1,4] <= 100000
 R297: - x2[1] + x2[5] + 100000 n1[1,5] <= 100000
 R298: x2[0] - x2[2] + 100000 n1[2,0] <= 100000
 R299: x2[1] - x2[2] + 100000 n1[2,1] <= 100000
 R300: - x2[2] + x2[3] + 100000 n1[2,3] <= 100000
 R301: - x2[2] + x2[4] + 100000 n1[2,4] <= 100000
 R302: - x2[2] + x2[5] + 100000 n1[2,5] <= 100000
 R303: x2[0] - x2[3] + 100000 n1[3,0] <= 100000
 R304: x2[1] - x2[3] + 100000 n1[3,1] <= 100000
 R305: x2[2] - x2[3] + 100000 n1[3,2] <= 100000
 R306: - x2[3] + x2[4] + 100000 n1[3,4] <= 100000
 R307: - x2[3] + x2[5] + 100000 n1[3,5] <= 100000
 R308: x2[0] - x2[4] + 100000 n1[4,0] <= 100000
 R309: x2[1] - x2[4] + 100000 n1[4,1] <= 100000
 R310: x2[2] - x2[4] + 100000 n1[4,2] <= 100000
 R311: x2[3] - x2[4] + 100000 n1[4,3] <= 100000
 R312: - x2[4] + x2[5] + 100000 n1[4,5] <= 100000
 R313: x2[0] - x2[5] + 100000 n1[5,0] <= 100000
 R314: x2[1] - x2[5] + 100000 n1[5,1] <= 100000
 R315: x2[2] - x2[5] + 100000 n1[5,2] <= 100000
 R316: x2[3] - x2[5] + 100000 n1[5,3] <= 100000
 R317: x2[4] - x2[5] + 100000 n1[5,4] <= 100000
 R318: - y[0] + y2[0] - v[0,0] <= 0
 R319: - y[0] + y2[1] - v[0,1] <= 0
 R320: - y[0] + y2[2] - v[0,2] <= 0
 R321: - y[0] + y2[3] - v[0,3] <= 0
 R322: - y[0] + y2[4] - v[0,4] <= 0
 R323: - y[0] + y2[5] - v[0,5] <= 0
 R324: - y[1] + y2[0] - v[1,0] <= 0
 R325: - y[1] + y2[1] - v[1,1] <= 0
 R326: - y[1] + y2[2] - v[1,2] <= 0
 R327: - y[1] + y2[3] - v[1,3] <= 0
 R328: - y[1] + y2[4] - v[1,4] <= 0
 R329: - y[1] + y2[5] - v[1,5] <= 0
 R330: - y[2] + y2[0] - v[2,0] <= 0
 R331: - y[2] + y2[1] - v[2,1] <= 0
 R332: - y[2] + y2[2] - v[2,2] <= 0
 R333: - y[2] + y2[3] - v[2,3] <= 0
 R334: - y[2] + y2[4] - v[2,4] <= 0
 R335: - y[2] + y2[5] - v[2,5] <= 0
 R336: - y[3] + y2[0] - v[3,0] <= 0
 R337: - y[3] + y2[1] - v[3,1] <= 0
 R338: - y[3] + y2[2] - v[3,2] <= 0
 R339: - y[3] + y2[3] - v[3,3] <= 0
 R340: - y[3] + y2[4] - v[3,4] <= 0
 R341: - y[3] + y2[5] - v[3,5] <= 0
 R342: - y[4] + y2[0] - v[4,0] <= 0
 R343: - y[4] + y2[1] - v[4,1] <= 0
 R344: - y[4] + y2[2] - v[4,2] <= 0
 R345: - y[4] + y2[3] - v[4,3] <= 0
 R346: - y[4] + y2[4] - v[4,4] <= 0
 R347: - y[4] + y2[5] - v[4,5] <= 0
 R348: - y[5] + y2[0] - v[5,0] <= 0
 R349: - y[5] + y2[1] - v[5,1] <= 0
 R350: - y[5] + y2[2] - v[5,2] <= 0
 R351: - y[5] + y2[3] - v[5,3] <= 0
 R352: - y[5] + y2[4] - v[5,4] <= 0
 R353: - y[5] + y2[5] - v[5,5] <= 0
 R354: y[0] - y2[0] - v[0,0] <= 0
 R355: y[0] - y2[1] - v[0,1] <= 0
 R356: y[0] - y2[2] - v[0,2] <= 0
 R357: y[0] - y2[3] - v[0,3] <= 0
 R358: y[0] - y2[4] - v[0,4] <= 0
 R359: y[0] - y2[5] - v[0,5] <= 0
 R360: y[1] - y2[0] - v[1,0] <= 0
 R361: y[1] - y2[1] - v[1,1] <= 0
 R362: y[1] - y2[2] - v[1,2] <= 0
 R363: y[1] - y2[3] - v[1,3] <= 0
 R364: y[1] - y2[4] - v[1,4] <= 0
 R365: y[1] - y2[5] - v[1,5] <= 0
 R366: y[2] - y2[0] - v[2,0] <= 0
 R367: y[2] - y2[1] - v[2,1] <= 0
 R368: y[2] - y2[2] - v[2,2] <= 0
 R369: y[2] - y2[3] - v[2,3] <= 0
 R370: y[2] - y2[4] - v[2,4] <= 0
 R371: y[2] - y2[5] - v[2,5] <= 0
 R372: y[3] - y2[0] - v[3,0] <= 0
 R373: y[3] - y2[1] - v[3,1] <= 0
 R374: y[3] - y2[2] - v[3,2] <= 0
 R375: y[3] - y2[3] - v[3,3] <= 0
 R376: y[3] - y2[4] - v[3,4] <= 0
 R377: y[3] - y2[5] - v[3,5] <= 0
 R378: y[4] - y2[0] - v[4,0] <= 0
 R379: y[4] - y2[1] - v[4,1] <= 0
 R380: y[4] - y2[2] - v[4,2] <= 0
 R381: y[4] - y2[3] - v[4,3] <= 0
 R382: y[4] - y2[4] - v[4,4] <= 0
 R383: y[4] - y2[5] - v[4,5] <= 0
 R384: y[5] - y2[0] - v[5,0] <= 0
 R385: y[5] - y2[1] - v[5,1] <= 0
 R386: y[5] - y2[2] - v[5,2] <= 0
 R387: y[5] - y2[3] - v[5,3] <= 0
 R388: y[5] - y2[4] - v[5,4] <= 0
 R389: y[5] - y2[5] - v[5,5] <= 0
Bounds
Binaries
 p[0,0] p[1,0] p[2,0] p[3,0] p[4,0] p[5,0] z[0] l[0,0] l[0,1] l[0,2] l[0,3]
 l[0,4] l[0,5] l[1,0] l[1,1] l[1,2] l[1,3] l[1,4] l[1,5] l[2,0] l[2,1]
 l[2,2] l[2,3] l[2,4] l[2,5] l[3,0] l[3,1] l[3,2] l[3,3] l[3,4] l[3,5]
 l[4,0] l[4,1] l[4,2] l[4,3] l[4,4] l[4,5] l[5,0] l[5,1] l[5,2] l[5,3]
 l[5,4] l[5,5] u[0,0] u[0,1] u[0,2] u[0,3] u[0,4] u[0,5] u[1,0] u[1,1]
 u[1,2] u[1,3] u[1,4] u[1,5] u[2,0] u[2,1] u[2,2] u[2,3] u[2,4] u[2,5]
 u[3,0] u[3,1] u[3,2] u[3,3] u[3,4] u[3,5] u[4,0] u[4,1] u[4,2] u[4,3]
 u[4,4] u[4,5] u[5,0] u[5,1] u[5,2] u[5,3] u[5,4] u[5,5] r[0] r[1] r[2]
 r[3] r[4] r[5] g[0] g[1] g[2] g[3] g[4] g[5] h[0,0] h[0,1] h[0,2] h[0,3]
 h[0,4] h[0,5] h[1,0] h[1,1] h[1,2] h[1,3] h[1,4] h[1,5] h[2,0] h[2,1]
 h[2,2] h[2,3] h[2,4] h[2,5] h[3,0] h[3,1] h[3,2] h[3,3] h[3,4] h[3,5]
 h[4,0] h[4,1] h[4,2] h[4,3] h[4,4] h[4,5] h[5,0] h[5,1] h[5,2] h[5,3]
 h[5,4] h[5,5] o[0,0] o[0,1] o[0,2] o[0,3] o[0,4] o[0,5] o[1,0] o[1,1]
 o[1,2] o[1,3] o[1,4] o[1,5] o[2,0] o[2,1] o[2,2] o[2,3] o[2,4] o[2,5]
 o[3,0] o[3,1] o[3,2] o[3,3] o[3,4] o[3,5] o[4,0] o[4,1] o[4,2] o[4,3]
 o[4,4] o[4,5] o[5,0] o[5,1] o[5,2] o[5,3] o[5,4] o[5,5] s[0,0] s[0,1]
 s[0,2] s[0,3] s[0,4] s[0,5] s[1,0] s[1,1] s[1,2] s[1,3] s[1,4] s[1,5]
 s[2,0] s[2,1] s[2,2] s[2,3] s[2,4] s[2,5] s[3,0] s[3,1] s[3,2] s[3,3]
 s[3,4] s[3,5] s[4,0] s[4,1] s[4,2] s[4,3] s[4,4] s[4,5] s[5,0] s[5,1]
 s[5,2] s[5,3] s[5,4] s[5,5] n1[0,0] n1[0,1] n1[0,2] n1[0,3] n1[0,4]
 n1[0,5] n1[1,0] n1[1,1] n1[1,2] n1[1,3] n1[1,4] n1[1,5] n1[2,0] n1[2,1]
 n1[2,2] n1[2,3] n1[2,4] n1[2,5] n1[3,0] n1[3,1] n1[3,2] n1[3,3] n1[3,4]
 n1[3,5] n1[4,0] n1[4,1] n1[4,2] n1[4,3] n1[4,4] n1[4,5] n1[5,0] n1[5,1]
 n1[5,2] n1[5,3] n1[5,4] n1[5,5] n2[0,0] n2[0,1] n2[0,2] n2[0,3] n2[0,4]
 n2[0,5] n2[1,0] n2[1,1] n2[1,2] n2[1,3] n2[1,4] n2[1,5] n2[2,0] n2[2,1]
 n2[2,2] n2[2,3] n2[2,4] n2[2,5] n2[3,0] n2[3,1] n2[3,2] n2[3,3] n2[3,4]
 n2[3,5] n2[4,0] n2[4,1] n2[4,2] n2[4,3] n2[4,4] n2[4,5] n2[5,0] n2[5,1]
 n2[5,2] n2[5,3] n2[5,4] n2[5,5] b1[0,0] b1[0,1] b1[0,2] b1[0,3] b1[0,4]
 b1[0,5] b1[1,0] b1[1,1] b1[1,2] b1[1,3] b1[1,4] b1[1,5] b1[2,0] b1[2,1]
 b1[2,2] b1[2,3] b1[2,4] b1[2,5] b1[3,0] b1[3,1] b1[3,2] b1[3,3] b1[3,4]
 b1[3,5] b1[4,0] b1[4,1] b1[4,2] b1[4,3] b1[4,4] b1[4,5] b1[5,0] b1[5,1]
 b1[5,2] b1[5,3] b1[5,4] b1[5,5] b2[0,0] b2[0,1] b2[0,2] b2[0,3] b2[0,4]
 b2[0,5] b2[1,0] b2[1,1] b2[1,2] b2[1,3] b2[1,4] b2[1,5] b2[2,0] b2[2,1]
 b2[2,2] b2[2,3] b2[2,4] b2[2,5] b2[3,0] b2[3,1] b2[3,2] b2[3,3] b2[3,4]
 b2[3,5] b2[4,0] b2[4,1] b2[4,2] b2[4,3] b2[4,4] b2[4,5] b2[5,0] b2[5,1]
 b2[5,2] b2[5,3] b2[5,4] b2[5,5]
Generals
 x[0] x[1] x[2] x[3] x[4] x[5] x2[0] x2[1] x2[2] x2[3] x2[4] x2[5] y[0]
 y[1] y[2] y[3] y[4] y[5] y2[0] y2[1] y2[2] y2[3] y2[4] y2[5] v[0,0] v[0,1]
 v[0,2] v[0,3] v[0,4] v[0,5] v[1,0] v[1,1] v[1,2] v[1,3] v[1,4] v[1,5]
 v[2,0] v[2,1] v[2,2] v[2,3] v[2,4] v[2,5] v[3,0] v[3,1] v[3,2] v[3,3]
 v[3,4] v[3,5] v[4,0] v[4,1] v[4,2] v[4,3] v[4,4] v[4,5] v[5,0] v[5,1]
 v[5,2] v[5,3] v[5,4] v[5,5]
End
